clingo version 5.6.2
Reading from ./clingo/campionato14.cl ...
Solving...
Answer: 1
assegna(1,bulls,celtics) assegna(16,nets,celtics) assegna(24,seventysixers,celtics) assegna(21,cavaliers,celtics) assegna(26,mavericks,celtics) assegna(23,lakers,celtics) assegna(11,pistons,celtics) assegna(10,warriors,celtics) assegna(4,clippers,celtics) assegna(13,rockets,celtics) assegna(19,pacers,celtics) assegna(5,heat,celtics) assegna(8,nuggets,celtics) assegna(6,celtics,nets) assegna(15,seventysixers,nets) assegna(4,bulls,nets) assegna(10,cavaliers,nets) assegna(24,mavericks,nets) assegna(25,lakers,nets) assegna(7,pistons,nets) assegna(19,warriors,nets) assegna(13,clippers,nets) assegna(17,rockets,nets) assegna(2,pacers,nets) assegna(12,heat,nets) assegna(21,nuggets,nets) assegna(7,celtics,seventysixers) assegna(8,nets,seventysixers) assegna(5,bulls,seventysixers) assegna(13,cavaliers,seventysixers) assegna(23,mavericks,seventysixers) assegna(16,lakers,seventysixers) assegna(22,pistons,seventysixers) assegna(14,warriors,seventysixers) assegna(19,clippers,seventysixers) assegna(25,rockets,seventysixers) assegna(4,pacers,seventysixers) assegna(2,heat,seventysixers) assegna(11,nuggets,seventysixers) assegna(14,celtics,bulls) assegna(18,nets,bulls) assegna(17,seventysixers,bulls) assegna(2,cavaliers,bulls) assegna(15,mavericks,bulls) assegna(20,lakers,bulls) assegna(25,pistons,bulls) assegna(12,warriors,bulls) assegna(10,clippers,bulls) assegna(6,rockets,bulls) assegna(22,pacers,bulls) assegna(9,heat,bulls) assegna(3,nuggets,bulls) assegna(9,celtics,cavaliers) assegna(14,nets,cavaliers) assegna(26,seventysixers,cavaliers) assegna(19,bulls,cavaliers) assegna(11,mavericks,cavaliers) assegna(15,lakers,cavaliers) assegna(24,pistons,cavaliers) assegna(1,warriors,cavaliers) assegna(17,clippers,cavaliers) assegna(4,rockets,cavaliers) assegna(23,pacers,cavaliers) assegna(7,heat,cavaliers) assegna(20,nuggets,cavaliers) assegna(12,celtics,mavericks) assegna(5,nets,mavericks) assegna(9,seventysixers,mavericks) assegna(7,bulls,mavericks) assegna(25,cavaliers,mavericks) assegna(18,lakers,mavericks) assegna(19,pistons,mavericks) assegna(21,warriors,mavericks) assegna(1,clippers,mavericks) assegna(22,rockets,mavericks) assegna(16,pacers,mavericks) assegna(3,heat,mavericks) assegna(14,nuggets,mavericks) assegna(2,celtics,lakers) assegna(11,nets,lakers) assegna(1,seventysixers,lakers) assegna(13,bulls,lakers) assegna(5,cavaliers,lakers) assegna(10,mavericks,lakers) assegna(4,pistons,lakers) assegna(8,warriors,lakers) assegna(21,clippers,lakers) assegna(19,rockets,lakers) assegna(14,pacers,lakers) assegna(24,heat,lakers) assegna(17,nuggets,lakers) assegna(18,celtics,pistons) assegna(23,nets,pistons) assegna(10,seventysixers,pistons) assegna(8,bulls,pistons) assegna(3,cavaliers,pistons) assegna(13,mavericks,pistons) assegna(26,lakers,pistons) assegna(6,warriors,pistons) assegna(14,clippers,pistons) assegna(2,rockets,pistons) assegna(5,pacers,pistons) assegna(21,heat,pistons) assegna(16,nuggets,pistons) assegna(17,celtics,warriors) assegna(9,nets,warriors) assegna(3,seventysixers,warriors) assegna(26,bulls,warriors) assegna(16,cavaliers,warriors) assegna(2,mavericks,warriors) assegna(22,lakers,warriors) assegna(20,pistons,warriors) assegna(11,clippers,warriors) assegna(7,rockets,warriors) assegna(13,pacers,warriors) assegna(23,heat,warriors) assegna(5,nuggets,warriors) assegna(15,celtics,clippers) assegna(22,nets,clippers) assegna(6,seventysixers,clippers) assegna(23,bulls,clippers) assegna(12,cavaliers,clippers) assegna(20,mavericks,clippers) assegna(3,lakers,clippers) assegna(9,pistons,clippers) assegna(25,warriors,clippers) assegna(16,rockets,clippers) assegna(7,pacers,clippers) assegna(18,heat,clippers) assegna(26,nuggets,clippers) assegna(20,celtics,rockets) assegna(3,nets,rockets) assegna(12,seventysixers,rockets) assegna(21,bulls,rockets) assegna(18,cavaliers,rockets) assegna(8,mavericks,rockets) assegna(9,lakers,rockets) assegna(15,pistons,rockets) assegna(24,warriors,rockets) assegna(5,clippers,rockets) assegna(26,pacers,rockets) assegna(14,heat,rockets) assegna(23,nuggets,rockets) assegna(3,celtics,pacers) assegna(20,nets,pacers) assegna(21,seventysixers,pacers) assegna(11,bulls,pacers) assegna(8,cavaliers,pacers) assegna(6,mavericks,pacers) assegna(12,lakers,pacers) assegna(17,pistons,pacers) assegna(18,warriors,pacers) assegna(24,clippers,pacers) assegna(1,rockets,pacers) assegna(15,heat,pacers) assegna(25,nuggets,pacers) assegna(25,celtics,heat) assegna(26,nets,heat) assegna(20,seventysixers,heat) assegna(16,bulls,heat) assegna(22,cavaliers,heat) assegna(17,mavericks,heat) assegna(6,lakers,heat) assegna(1,pistons,heat) assegna(4,warriors,heat) assegna(8,clippers,heat) assegna(11,rockets,heat) assegna(10,pacers,heat) assegna(13,nuggets,heat) assegna(22,celtics,nuggets) assegna(1,nets,nuggets) assegna(18,seventysixers,nuggets) assegna(24,bulls,nuggets) assegna(6,cavaliers,nuggets) assegna(4,mavericks,nuggets) assegna(7,lakers,nuggets) assegna(12,pistons,nuggets) assegna(15,warriors,nuggets) assegna(2,clippers,nuggets) assegna(10,rockets,nuggets) assegna(9,pacers,nuggets) assegna(19,heat,nuggets)
SATISFIABLE

Models       : 1+
Calls        : 1
Time         : 2.029s (Solving: 1.80s 1st Model: 1.80s Unsat: 0.00s)
CPU Time     : 21.684s
Threads      : 12       (Winner: 0)
